6 2
4443 12063 12984 15557 16736 18152
0 11662 19041 19394 5559 5941 1940
17674 0 8693 5113 5528 4713 12406
7819 1263 0 16832 6010 3960 396
4476 13254 14038 0 17826 11225 9561
6075 15176 2983 19598 0 18280 5669
7786 3918 10499 18941 8571 0 12559
10946 10584 18476 17676 13411 7627 0